13
91
52
63
58
83
11
86
77
9
82
29
31
108
43
67
72
1
85
22
47
46
110
78
14
109
75
33
76
54
10
32
89
66
17
106
15
94
59
16
48
3
79
65
103
96
40
81
60
62
84
87
41
105
57
107
34
73
74
0
102
2
20
4
98
28
71
35
93
26
56
44
7
45
50
42
30
101
39
25
5
8
18
38
24
55
27
19
64
104
6
95
69
88
23
37
68
36
99
70
